Minimize
  + 20583.23094694906 Constant
Subject To
 R7: (can0_init_target-value-(1,_0)) = 1
 R10: (pr2-pose-(1,_0)) = 11.0291132237584
 R34: - (can0_init_target-value-(1,_0)) + (pr2-pose-(1,_0)) <= 10
Bounds
 (can0_init_target-value-(1,_0)) free
 (pr2-pose-(1,_0)) free
 Constant = 1
End
